DIMENSION: 20
EDGE_WEIGHT_TYPE: EXPLICIT
EDGE_WEIGHT_FORMAT: FULL_MATRIX
EDGE_WEIGHT_SECTION:
32767 93 61 32767 32767 32767 32767 6 24 90 32767 36 40 37 32767 32767 13 42 32767 91 
93 32767 32767 32767 32767 32767 7 75 32767 32 32767 32767 88 32767 23 32767 23 82 32767 47 
61 32767 32767 32767 80 26 55 32767 32767 19 32767 32767 32767 32767 32767 32767 12 32767 32767 34 
32767 32767 32767 32767 32767 32767 32767 32767 32767 91 32767 26 80 32767 86 9 32 32767 59 32767 
32767 32767 80 32767 32767 32767 32767 32767 32767 32767 32767 32767 32767 32 32767 25 32767 32767 26 88 
32767 32767 26 32767 32767 32767 32767 32767 32767 32767 32767 32767 32767 35 42 32767 32767 64 32767 32767 
32767 7 55 32767 32767 32767 32767 13 32767 44 92 56 32767 82 23 32767 32767 32767 32767 32767 
6 75 32767 32767 32767 32767 13 32767 32767 32767 32767 32767 32767 32767 32767 32767 32767 38 32767 2 
24 32767 32767 32767 32767 32767 32767 32767 32767 90 32767 32767 64 32767 100 20 32767 42 32767 32767 
90 32 19 91 32767 32767 44 32767 90 32767 32767 57 98 32767 32767 32767 51 32767 42 93 
32767 32767 32767 32767 32767 32767 92 32767 32767 32767 32767 32767 32767 32767 95 45 52 32767 77 32767 
36 32767 32767 26 32767 32767 56 32767 32767 57 32767 32767 57 32767 32767 43 32767 1 32767 32767 
40 88 32767 80 32767 32767 32767 32767 64 98 32767 57 32767 32767 32767 32767 32767 98 80 32767 
37 32767 32767 32767 32 35 82 32767 32767 32767 32767 32767 32767 32767 32767 32767 32767 32767 32767 31 
32767 23 32767 86 32767 42 23 32767 100 32767 95 32767 32767 32767 32767 32767 32767 75 32767 13 
32767 32767 32767 9 25 32767 32767 32767 20 32767 45 43 32767 32767 32767 32767 93 32767 19 27 
13 23 12 32 32767 32767 32767 32767 32767 51 52 32767 32767 32767 32767 93 32767 62 32767 32767 
42 82 32767 32767 32767 64 32767 38 42 32767 32767 1 98 32767 75 32767 62 32767 32767 32767 
32767 32767 32767 59 26 32767 32767 32767 32767 42 77 32767 80 32767 32767 19 32767 32767 32767 32767 
91 47 34 32767 88 32767 32767 2 32767 93 32767 32767 32767 31 13 27 32767 32767 32767 32767 
EOF